\ENCODING=ISO-8859-1
\Problem name: Instance of partitioned graph coloring.

Minimize
 obj: x1 + x2 + x3
Subject To
 c1:  x4 + x7 <= 1
 c2:  x5 + x8 <= 1
 c3:  x6 + x9 <= 1
 c4:  x4 + x13 <= 1
 c5:  x5 + x14 <= 1
 c6:  x6 + x15 <= 1
 c7:  x4 + x22 <= 1
 c8:  x5 + x23 <= 1
 c9:  x6 + x24 <= 1
 c10: x4 + x28 <= 1
 c11: x5 + x29 <= 1
 c12: x6 + x30 <= 1
 c13: x7 + x10 <= 1
 c14: x8 + x11 <= 1
 c15: x9 + x12 <= 1
 c16: x7 + x19 <= 1
 c17: x8 + x20 <= 1
 c18: x9 + x21 <= 1
 c19: x7 + x25 <= 1
 c20: x8 + x26 <= 1
 c21: x9 + x27 <= 1
 c22: x10 + x16 <= 1
 c23: x11 + x17 <= 1
 c24: x12 + x18 <= 1
 c25: x10 + x22 <= 1
 c26: x11 + x23 <= 1
 c27: x12 + x24 <= 1
 c28: x10 + x31 <= 1
 c29: x11 + x32 <= 1
 c30: x12 + x33 <= 1
 c31: x13 + x16 <= 1
 c32: x14 + x17 <= 1
 c33: x15 + x18 <= 1
 c34: x13 + x19 <= 1
 c35: x14 + x20 <= 1
 c36: x15 + x21 <= 1
 c37: x13 + x31 <= 1
 c38: x14 + x32 <= 1
 c39: x15 + x33 <= 1
 c40: x16 + x25 <= 1
 c41: x17 + x26 <= 1
 c42: x18 + x27 <= 1
 c43: x16 + x28 <= 1
 c44: x17 + x29 <= 1
 c45: x18 + x30 <= 1
 c46: x19 + x34 <= 1
 c47: x20 + x35 <= 1
 c48: x21 + x36 <= 1
 c49: x22 + x34 <= 1
 c50: x23 + x35 <= 1
 c51: x24 + x36 <= 1
 c52: x25 + x34 <= 1
 c53: x26 + x35 <= 1
 c54: x27 + x36 <= 1
 c55: x28 + x34 <= 1
 c56: x29 + x35 <= 1
 c57: x30 + x36 <= 1
 c58: x31 + x34 <= 1
 c59: x32 + x35 <= 1
 c60: x33 + x36 <= 1
 c61: x7 + x8 + x9 + x22 + x23 + x24  = 1
 c62:  = 1
 c63: x19 + x20 + x21 + x34 + x35 + x36  = 1
 c64: x4 + x5 + x6 + x10 + x11 + x12 + x13 + x14 + x15 + x16 + x17 + x18 + x25
      + x26 + x27 + x28 + x29 + x30 + x31 + x32 + x33  = 1
 c65:  = 1
 c66: - x1 + x4 <= 0
 c67: - x2 + x5 <= 0
 c68: - x3 + x6 <= 0
 c69: - x1 + x7 <= 0
 c70: - x2 + x8 <= 0
 c71: - x3 + x9 <= 0
 c72: - x1 + x10 <= 0
 c73: - x2 + x11 <= 0
 c74: - x3 + x12 <= 0
 c75: - x1 + x13 <= 0
 c76: - x2 + x14 <= 0
 c77: - x3 + x15 <= 0
 c78: - x1 + x16 <= 0
 c79: - x2 + x17 <= 0
 c80: - x3 + x18 <= 0
 c81: - x1 + x19 <= 0
 c82: - x2 + x20 <= 0
 c83: - x3 + x21 <= 0
 c84: - x1 + x22 <= 0
 c85: - x2 + x23 <= 0
 c86: - x3 + x24 <= 0
 c87: - x1 + x25 <= 0
 c88: - x2 + x26 <= 0
 c89: - x3 + x27 <= 0
 c90: - x1 + x28 <= 0
 c91: - x2 + x29 <= 0
 c92: - x3 + x30 <= 0
 c93: - x1 + x31 <= 0
 c94: - x2 + x32 <= 0
 c95: - x3 + x33 <= 0
 c96: - x1 + x34 <= 0
 c97: - x2 + x35 <= 0
 c98: - x3 + x36 <= 0
Bounds
 0 <= x1 <= 1
 0 <= x2 <= 1
 0 <= x3 <= 1
 0 <= x4 <= 1
 0 <= x5 <= 1
 0 <= x6 <= 1
 0 <= x7 <= 1
 0 <= x8 <= 1
 0 <= x9 <= 1
 0 <= x10 <= 1
 0 <= x11 <= 1
 0 <= x12 <= 1
 0 <= x13 <= 1
 0 <= x14 <= 1
 0 <= x15 <= 1
 0 <= x16 <= 1
 0 <= x17 <= 1
 0 <= x18 <= 1
 0 <= x19 <= 1
 0 <= x20 <= 1
 0 <= x21 <= 1
 0 <= x22 <= 1
 0 <= x23 <= 1
 0 <= x24 <= 1
 0 <= x25 <= 1
 0 <= x26 <= 1
 0 <= x27 <= 1
 0 <= x28 <= 1
 0 <= x29 <= 1
 0 <= x30 <= 1
 0 <= x31 <= 1
 0 <= x32 <= 1
 0 <= x33 <= 1
 0 <= x34 <= 1
 0 <= x35 <= 1
 0 <= x36 <= 1
Binaries
 x1  x2  x3  x4  x5  x6  x7  x8  x9  x10  x11  x12  x13  x14  x15  x16  x17 
 x18  x19  x20  x21  x22  x23  x24  x25  x26  x27  x28  x29  x30  x31  x32 
 x33  x34  x35  x36 
End
